This is Ipopt version 3.10.1, running with linear solver mumps.

Number of nonzeros in equality constraint Jacobian...:      225
Number of nonzeros in inequality constraint Jacobian.:        0
Number of nonzeros in Lagrangian Hessian.............:     5568

Total number of variables............................:      114
                     variables with only lower bounds:        0
                variables with lower and upper bounds:      114
                     variables with only upper bounds:        0
Total number of equality constraints.................:       75
Total number of inequality constraints...............:        0
        inequality constraints with only lower bounds:        0
   inequality constraints with lower and upper bounds:        0
        inequality constraints with only upper bounds:        0

iter    objective    inf_pr   inf_du lg(mu)  ||d||  lg(rg) alpha_du alpha_pr  ls
   0 -3.0108811e-05 2.75e-03 2.21e-05  -1.0 0.00e+00    -  0.00e+00 0.00e+00   0
   1 -3.1252368e-05 2.22e-16 5.58e-05  -1.7 1.88e-02    -  9.99e-01 1.00e+00h  1
   2 -3.2452931e-05 2.22e-16 2.67e-04  -2.5 3.87e-02    -  9.97e-01 1.00e+00f  1
   3 -3.3117446e-05 9.83e-12 1.00e-04  -3.8 4.50e-02    -  9.83e-01 1.00e+00f  1
   4 -3.5762332e-05 5.78e-13 6.46e-05  -5.7 1.39e-02    -  9.69e-01 1.00e+00h  1
   5 -4.9839550e-04 5.00e-13 7.81e-04  -5.7 1.56e+00  -4.0 1.46e-01 1.36e-01f  1
   6 -5.9053195e-04 3.39e-13 7.92e-04  -5.7 4.72e-02  -1.8 1.00e+00 1.00e+00f  1
   7 -9.2995211e-04 3.88e-13 5.75e-04  -5.7 2.25e-01  -2.2 1.00e+00 1.31e-01f  1
   8 -1.2985388e-03 1.86e-13 8.99e-04  -5.7 4.74e-02  -1.8 1.00e+00 5.21e-01f  1
   9 -1.2857164e-03 1.85e-13 1.20e-03  -5.7 2.24e-01  -2.3 1.27e-01 3.91e-03f  9
iter    objective    inf_pr   inf_du lg(mu)  ||d||  lg(rg) alpha_du alpha_pr  ls
  10 -1.4922891e-03 2.42e-13 3.44e-03  -5.7 1.32e-01  -1.9 1.00e+00 8.09e-02f  1
  11 -1.6745429e-03 1.46e-13 1.91e-03  -5.7 2.49e-02  -1.4 1.00e+00 3.96e-01f  1
  12 -2.1025839e-03 1.35e-13 6.96e-03  -5.7 2.67e-01  -1.9 1.00e+00 7.98e-02f  1
  13 -3.2880462e-03 6.44e-15 1.84e-03  -5.7 4.48e-02  -1.5 1.00e+00 9.53e-01f  1
  14 -3.2831657e-03 6.44e-15 2.01e-03  -5.7 4.57e-01  -2.0 2.52e-02 3.88e-04f 12
  15 -3.4640916e-03 1.28e-13 8.51e-03  -5.7 1.33e-01  -1.5 1.00e+00 4.76e-02f  1
  16 -3.4569951e-03 1.28e-13 8.00e-03  -5.7 5.80e-01  -2.0 2.30e-02 6.18e-04f 11
  17 -3.4496798e-03 1.23e-13 7.18e-03  -5.7 7.93e+00  -1.6 1.85e-02 9.07e-05f 11
  18 -3.4825370e-03 1.45e-12 6.07e-03  -5.7 1.28e-01  -1.2 4.68e-01 3.23e-01f  1
  19 -3.8096242e-03 1.35e-12 8.71e-03  -5.7 1.67e-01  -1.6 1.00e+00 7.10e-02f  1
iter    objective    inf_pr   inf_du lg(mu)  ||d||  lg(rg) alpha_du alpha_pr  ls
  20 -5.1340312e-03 3.11e-15 2.04e-03  -5.7 3.65e-02  -1.2 1.00e+00 1.00e+00f  1
  21 -4.7015640e-03 3.11e-15 1.91e-03  -5.7 2.32e+01  -1.7 8.87e-04 5.67e-04h  6
  22 -5.7681088e-03 2.22e-15 2.40e-03  -5.7 6.25e-02  -1.3 1.00e+00 3.99e-01f  1
  23 -5.7612121e-03 2.22e-15 2.39e-03  -5.7 1.15e+00  -1.8 2.46e-03 1.84e-04f 12
  24 -5.7558676e-03 1.67e-14 1.58e-02  -5.7 3.68e+00  -1.3 3.47e-02 1.36e-04f 10
  25 -5.3473670e-03 1.64e-14 1.22e-02  -5.7 6.50e-01  -1.8 1.05e-01 2.08e-02h  6
  26 -5.7880864e-03 1.49e-14 8.83e-03  -5.7 1.15e-01  -1.4 1.00e+00 9.60e-02f  1
  27 -5.7818253e-03 1.49e-14 5.27e-03  -5.7 5.07e-01  -1.9 1.49e-01 4.15e-04f 12
  28 -6.3334747e-03 1.38e-14 1.24e-02  -5.7 1.82e-01  -1.4 1.00e+00 7.14e-02f  1
  29 -7.9910912e-03 1.54e-12 3.62e-03  -5.7 3.80e-02  -1.0 1.00e+00 9.51e-01f  1
iter    objective    inf_pr   inf_du lg(mu)  ||d||  lg(rg) alpha_du alpha_pr  ls
  30 -8.7920195e-03 1.50e-12 3.66e-02  -5.7 5.73e-01  -1.5 8.22e-01 2.92e-02f  1
  31 -1.0627617e-02 7.27e-13 4.97e-03  -5.7 6.79e-02  -1.1 1.00e+00 5.14e-01f  1
  32 -6.5123405e-03 6.90e-13 6.63e-03  -5.7 2.11e+00  -1.5 1.95e-02 5.17e-02h  3
  33 -8.0520616e-03 2.22e-16 3.34e-03  -5.7 4.32e-02  -1.1 1.00e+00 1.00e+00F  1
  34 -8.9469155e-03 3.84e-13 2.89e-02  -5.7 7.13e-01  -1.6 6.54e-01 3.29e-02f  2
  35 -9.2839096e-03 5.11e-13 6.46e-03  -5.7 8.74e-02  -1.2 1.00e+00 8.89e-02f  3
  36 -1.0561430e-02 2.22e-16 4.84e-03  -5.7 2.61e-02  -0.7 1.00e+00 1.00e+00F  1
  37 -1.3039269e-02 1.01e-12 8.70e-03  -5.7 1.44e-01  -1.2 1.00e+00 3.09e-01f  1
  38 -1.5989647e-02 2.78e-12 7.65e-03  -5.7 4.70e-02  -0.8 1.00e+00 1.00e+00f  1
  39 -1.6471862e-02 2.74e-12 4.87e-02  -5.7 4.78e-01  -1.3 8.80e-01 1.37e-02f  1
iter    objective    inf_pr   inf_du lg(mu)  ||d||  lg(rg) alpha_du alpha_pr  ls
  40 -1.8660609e-02 2.37e-12 9.23e-03  -5.7 4.92e-02  -0.8 1.00e+00 5.14e-01f  1
  41 -2.5127144e-02 1.86e-12 3.08e-02  -5.7 3.19e-01  -1.3 8.05e-01 2.16e-01f  1
  42 -2.5425916e-02 1.98e-12 3.14e-02  -5.7 6.55e-02  -0.9 8.35e-01 5.40e-02f  1
  43 -2.6748483e-02 1.86e-12 4.94e-02  -5.7 3.04e-01  -1.4 8.50e-01 6.17e-02f  1
  44 -3.1893268e-02 1.81e-13 8.68e-03  -5.7 7.09e-02  -0.9 1.00e+00 9.03e-01f  1
  45 -3.4533165e-02 1.72e-13 1.52e-02  -5.7 4.64e-01  -1.4 1.69e-01 5.09e-02f  1
  46 -3.4800785e-02 3.17e-13 2.54e-02  -5.7 7.00e-02  -1.0 1.00e+00 3.82e-02f  1
  47 -4.4458238e-02 6.42e-12 2.68e-02  -5.7 2.94e-01  -1.5 6.22e-01 3.78e-01f  1
  48 -4.5293090e-02 5.71e-12 3.33e-02  -5.7 8.53e-02  -1.0 1.00e+00 1.10e-01f  1
  49 -5.1181357e-02 5.19e-12 2.68e-02  -5.7 5.86e-01  -1.5 3.08e-02 9.16e-02f  1
iter    objective    inf_pr   inf_du lg(mu)  ||d||  lg(rg) alpha_du alpha_pr  ls
  50 -6.0983646e-02 8.49e-12 1.30e-02  -5.7 1.26e-01  -1.1 1.00e+00 7.04e-01f  1
  51 -6.0961068e-02 8.43e-12 1.33e-02  -5.7 5.93e-01  -1.6 3.81e-02 7.03e-03f  4
  52 -6.2558515e-02 7.50e-12 4.16e-02  -5.7 1.38e-01  -1.1 1.00e+00 1.10e-01f  1
  53 -6.2959649e-02 7.13e-12 3.84e-02  -5.7 6.12e-01  -1.6 9.31e-03 4.95e-02f  1
  54 -6.3115097e-02 7.10e-12 3.42e-02  -5.7 1.39e-01  -1.2 1.00e+00 1.46e-02f  1
  55 -6.5103417e-02 4.77e-12 3.98e-02  -5.7 4.35e-01  -1.7 5.06e-02 3.29e-01f  1
  56 -6.5184073e-02 4.08e-12 4.04e-02  -5.7 3.52e-01  -2.1 5.59e-01 1.43e-01f  1
  57 -7.6312847e-02 1.06e-11 5.19e-02  -5.7 3.48e-01  -1.7 2.77e-03 4.07e-01f  1
  58 -8.4632889e-02 1.20e-11 6.36e-02  -5.7 1.43e-01  -1.3 1.01e-01 5.49e-01f  1
  59 -8.7032675e-02 1.01e-11 4.45e-02  -5.7 6.99e-02  -0.9 3.23e-01 3.57e-01f  1
iter    objective    inf_pr   inf_du lg(mu)  ||d||  lg(rg) alpha_du alpha_pr  ls
  60 -9.0178921e-02 2.22e-16 5.89e-02  -5.7 4.48e-02  -0.4 2.62e-01 1.00e+00f  1
  61 -9.1044356e-02 1.01e-12 5.67e-02  -5.7 1.30e-01  -0.9 6.09e-02 4.31e-02f  1
  62 -9.4296756e-02 4.02e-13 3.90e-02  -5.7 3.78e-02  -0.5 1.51e-01 6.03e-01f  1
  63 -1.0556834e-01 6.97e-12 5.66e-02  -5.7 3.49e-01  -1.0 5.96e-02 1.46e-01f  1
  64 -1.0556168e-01 6.97e-12 8.11e-02  -5.7 2.56e-01  -1.4 2.05e-01 1.09e-04f 12
  65 -1.0556010e-01 6.97e-12 8.13e-02  -5.7 3.42e-01  -1.9 1.85e-01 4.07e-05f 13
  66 -1.0685401e-01 7.61e-12 5.06e-02  -5.7 9.94e-02  -0.6 5.56e-01 4.88e-02f  1
  67 -1.1455994e-01 9.03e-12 1.87e-02  -5.7 2.78e-02  -0.2 1.00e+00 1.00e+00f  1
  68 -1.2467059e-01 1.24e-11 5.32e-02  -5.7 1.66e-01  -0.6 5.51e-01 1.81e-01f  1
  69 -1.2965842e-01 1.22e-11 9.80e-02  -5.7 1.46e+00  -1.1 7.25e-02 1.43e-02f  1
iter    objective    inf_pr   inf_du lg(mu)  ||d||  lg(rg) alpha_du alpha_pr  ls
  70 -1.3129454e-01 1.25e-11 1.85e-01  -5.7 1.58e-01  -0.7 6.00e-01 4.53e-02f  1
  71 -1.5716092e-01 2.25e-11 1.83e-01  -5.7 4.83e+00  -1.2 2.20e-02 1.96e-02f  1
  72 -1.5715746e-01 2.25e-11 1.83e-01  -5.7 5.31e-01  -1.6 8.03e-04 2.23e-05f 15
  73 -1.6246627e-01 2.24e-11 2.92e-01  -5.7 2.55e+01  -2.1 1.25e-02 2.53e-03f  1
  74 -1.5203141e-01 1.90e-11 2.51e-01  -5.7 7.93e-01    -  1.35e-01 1.51e-01h  1
  75 -1.5202992e-01 1.90e-11 2.50e-01  -5.7 5.94e-01  -1.7 1.97e-03 1.15e-05f 15
  76r-1.5202992e-01 1.90e-11 5.16e+00  -5.7 0.00e+00  -1.3 0.00e+00 1.23e-08R  2
  77r-1.4797559e-01 1.90e-11 5.15e+00  -5.7 7.34e+02    -  9.96e-04 5.43e-05f  4
  78 -1.6805124e-01 4.83e-11 1.16e+00  -5.7 1.72e-01  -0.8 8.72e-01 4.67e-01f  1
  79 -1.6441145e-01 4.80e-11 1.02e+00  -5.7 2.06e+00  -1.3 7.26e-02 7.01e-03h  5
iter    objective    inf_pr   inf_du lg(mu)  ||d||  lg(rg) alpha_du alpha_pr  ls
  80 -2.1773914e-01 6.40e-11 8.48e-02  -5.7 2.66e-01  -0.9 1.00e+00 6.20e-01f  1
  81 -2.1773814e-01 6.40e-11 8.48e-02  -5.7 1.23e+00  -1.4 8.59e-05 2.36e-06f 18
  82 -2.2186147e-01 6.37e-11 9.92e-02  -5.7 1.23e+01  -1.9 2.23e-02 5.25e-03f  1
  83 -2.2186095e-01 6.37e-11 9.90e-02  -5.7 7.15e-01  -2.3 4.27e-04 2.11e-06f 19
  84 -2.3209261e-01 6.36e-11 1.82e-01  -5.7 2.97e+01  -1.9 8.40e-03 1.41e-03f  1
  85 -1.7247899e-01 5.50e-11 2.94e-01  -5.7 1.73e+00  -2.4 1.15e-03 1.36e-01h  1
  86 -1.7247293e-01 5.50e-11 1.34e-01  -5.7 6.60e-01    -  4.23e-01 4.28e-05f 14
  87 -1.2720401e-01 1.06e-11 1.45e-01  -5.7 4.58e-01    -  1.66e-02 8.07e-01h  1
  88 -1.3579185e-01 8.97e-12 1.27e-01  -5.7 1.52e+00    -  2.05e-05 1.54e-01f  1
  89 -1.3803453e-01 7.13e-12 1.33e-01  -5.7 8.18e-01  -2.0 7.84e-02 2.05e-01f  1
iter    objective    inf_pr   inf_du lg(mu)  ||d||  lg(rg) alpha_du alpha_pr  ls
  90 -1.3802953e-01 7.12e-12 6.89e-02  -5.7 2.43e-01    -  5.29e-01 4.24e-04f  9
  91 -1.4105880e-01 6.56e-12 5.72e-02  -5.7 2.20e+00    -  3.63e-02 7.91e-02f  1
  92 -1.4104724e-01 6.54e-12 7.30e-02  -5.7 2.45e-01    -  7.90e-01 3.35e-03f  8
  93 -1.3585231e-01 5.58e-12 5.69e-02  -5.7 4.81e-01  -1.5 3.13e-02 1.46e-01h  1
  94 -1.4487100e-01 2.25e-12 5.20e-02  -5.7 2.37e-01    -  3.22e-04 5.98e-01f  1
  95 -1.4296669e-01 1.17e-12 3.18e-02  -5.7 1.72e-01  -2.0 5.95e-01 4.81e-01h  1
  96 -1.4299317e-01 1.12e-12 2.35e-01  -5.7 2.19e-01    -  1.02e-05 4.08e-02f  1
  97 -1.4421152e-01 4.74e-13 1.00e-01  -5.7 8.30e-02  -2.5 1.00e+00 5.76e-01f  1
  98 -1.4447898e-01 2.57e-13 5.48e-02  -5.7 2.67e-02    -  2.64e-01 4.59e-01f  1
  99 -1.4466715e-01 4.44e-15 2.94e-04  -5.7 2.50e-02    -  1.00e+00 1.00e+00f  1
iter    objective    inf_pr   inf_du lg(mu)  ||d||  lg(rg) alpha_du alpha_pr  ls
 100 -1.4468239e-01 1.55e-15 2.50e-06  -5.7 2.75e-03    -  1.00e+00 1.00e+00f  1
 101 -1.4481901e-01 2.22e-16 2.65e-05  -8.6 1.75e-03  -2.1 9.60e-01 9.91e-01f  1
 102 -1.4482039e-01 2.22e-16 6.84e-07  -8.6 2.35e-04  -2.5 1.00e+00 1.00e+00f  1
 103 -1.4482039e-01 6.66e-16 4.56e-11  -8.6 9.14e-06    -  1.00e+00 1.00e+00h  1

Number of Iterations....: 103

                                   (scaled)                 (unscaled)
Objective...............:  -1.4482038685419368e-01   -1.4482038685419368e-01
Dual infeasibility......:   4.5553752153194219e-11    4.5553752153194219e-11
Constraint violation....:   6.6613381477509392e-16    6.6613381477509392e-16
Complementarity.........:   2.5064457279790228e-09    2.5064457279790228e-09
Overall NLP error.......:   2.5064457279790228e-09    2.5064457279790228e-09


Number of objective function evaluations             = 328
Number of objective gradient evaluations             = 104
Number of equality constraint evaluations            = 328
Number of inequality constraint evaluations          = 0
Number of equality constraint Jacobian evaluations   = 1
Number of inequality constraint Jacobian evaluations = 0
Number of Lagrangian Hessian evaluations             = 103
Total CPU secs in IPOPT (w/o function evaluations)   =      1.580
Total CPU secs in NLP function evaluations           =     26.570

EXIT: Optimal Solution Found.
